c Result of efficient AIG-to-CNF conversion using package CNF
p cnf 424 1483
2 3 -222 0
2 -28 -218 -222 0
-2 222 0
-2 -3 28 0
-2 -3 218 0
-3 399 -12 0
-3 399 4 0
3 -399 0
3 -4 12 0
4 420 -5 0
-4 -420 0
-4 5 0
5 421 -6 0
5 -421 -9 0
-5 -421 9 0
-5 421 6 0
6 422 -7 0
6 -422 -8 0
-6 -422 8 0
-6 422 7 0
7 -367 423 0
7 -366 -423 0
-7 367 423 0
-7 366 -423 0
8 -365 423 0
8 -364 -423 0
-8 365 423 0
-8 364 -423 0
9 422 -10 0
9 -422 -11 0
-9 -422 11 0
-9 422 10 0
10 -363 423 0
10 -362 -423 0
-10 363 423 0
-10 362 -423 0
11 -361 423 0
11 -360 -423 0
-11 361 423 0
-11 360 -423 0
-12 13 19 0
12 -13 0
12 -19 0
-13 413 14 17 18 0
13 -413 0
13 -18 0
13 -17 0
13 -14 0
-14 414 15 0
14 -414 0
14 -15 0
-15 418 419 16 0
15 -16 0
15 -419 0
15 -418 0
-16 415 416 417 0
16 -415 0
16 -417 0
16 -416 0
-17 411 412 0
17 -411 0
17 -412 0
-18 402 403 404 0
18 -402 0
18 -404 0
18 -403 0
-19 20 21 22 0
19 -20 0
19 -21 0
19 -22 0
-20 405 406 407 0
20 -405 0
20 -407 0
20 -406 0
-21 408 409 410 0
21 -408 0
21 -410 0
21 -409 0
-22 392 23 0
22 -392 0
22 -23 0
-23 24 25 0
23 -24 0
23 -25 0
-24 393 394 395 0
24 -393 0
24 -395 0
24 -394 0
-25 26 27 0
25 -26 0
25 -27 0
-26 399 400 401 0
26 -399 0
26 -401 0
26 -400 0
-27 396 397 398 0
27 -396 0
27 -398 0
27 -397 0
28 -29 -39 -47 0
-28 47 0
-28 39 0
-28 29 0
-29 400 30 0
-29 400 -12 0
29 -400 0
29 12 -30 0
30 420 -31 0
30 -420 -38 0
-30 -420 38 0
-30 420 31 0
31 421 -32 0
31 -421 -35 0
-31 -421 35 0
-31 421 32 0
32 422 -33 0
32 -422 -34 0
-32 -422 34 0
-32 422 33 0
33 -368 423 0
33 -367 -423 0
-33 368 423 0
-33 367 -423 0
34 -366 423 0
34 -365 -423 0
-34 366 423 0
-34 365 -423 0
35 422 -36 0
35 -422 -37 0
-35 -422 37 0
-35 422 36 0
36 -364 423 0
36 -363 -423 0
-36 364 423 0
-36 363 -423 0
37 -362 423 0
37 -361 -423 0
-37 362 423 0
-37 361 -423 0
38 -360 421 422 423 0
-38 -423 0
-38 -422 0
-38 360 0
-38 -421 0
-39 401 40 0
-39 401 -12 0
39 -401 0
39 12 -40 0
40 420 -41 0
40 -420 -45 0
-40 -420 45 0
-40 420 41 0
41 421 -42 0
41 -421 -44 0
-41 -421 44 0
-41 421 42 0
42 -422 -7 0
42 422 -43 0
-42 422 43 0
-42 -422 7 0
43 -369 423 0
43 -368 -423 0
-43 369 423 0
-43 368 -423 0
44 422 -8 0
44 -422 -10 0
-44 -422 10 0
-44 422 8 0
45 421 -46 0
-45 -421 0
-45 46 0
46 -360 422 -423 0
46 -361 422 423 0
-46 -422 0
-46 360 -423 0
-46 361 423 0
47 -48 -56 -62 0
-47 62 0
-47 56 0
-47 48 0
-48 402 49 0
-48 402 -12 0
48 -402 0
48 12 -49 0
49 420 -50 0
49 -420 -54 0
-49 -420 54 0
-49 420 50 0
50 421 -51 0
50 -421 -53 0
-50 -421 53 0
-50 421 51 0
51 -422 -33 0
51 422 -52 0
-51 422 52 0
-51 -422 33 0
52 -370 423 0
52 -369 -423 0
-52 370 423 0
-52 369 -423 0
53 422 -34 0
53 -422 -36 0
-53 -422 36 0
-53 422 34 0
54 421 -55 0
-54 -421 0
-54 55 0
55 422 -37 0
55 -360 -422 423 0
-55 422 37 0
-55 -422 -423 0
-55 360 -422 0
-56 403 57 0
-56 403 -12 0
56 -403 0
56 12 -57 0
57 420 -58 0
57 -420 -61 0
-57 -420 61 0
-57 420 58 0
58 -421 -6 0
58 421 -59 0
-58 421 59 0
-58 -421 6 0
59 -422 -43 0
59 422 -60 0
-59 422 60 0
-59 -422 43 0
60 -371 423 0
60 -370 -423 0
-60 371 423 0
-60 370 -423 0
61 421 -9 0
-61 -421 0
-61 9 0
62 -63 -70 -76 -82 0
-62 82 0
-62 76 0
-62 63 0
-62 70 0
-63 404 64 0
-63 404 -12 0
63 -404 0
63 12 -64 0
64 420 -65 0
64 -420 -68 0
-64 -420 68 0
-64 420 65 0
65 -421 -32 0
65 421 -66 0
-65 421 66 0
-65 -421 32 0
66 -422 -52 0
66 422 -67 0
-66 422 67 0
-66 -422 52 0
67 -372 423 0
67 -371 -423 0
-67 372 423 0
-67 371 -423 0
68 421 -35 0
68 -421 -69 0
-68 -421 69 0
-68 421 35 0
69 -360 422 423 0
-69 360 0
-69 -423 0
-69 -422 0
-70 405 71 0
-70 405 -12 0
70 -405 0
70 12 -71 0
71 420 -72 0
71 -420 -75 0
-71 -420 75 0
-71 420 72 0
72 -421 -42 0
72 421 -73 0
-72 421 73 0
-72 -421 42 0
73 -422 -60 0
73 422 -74 0
-73 422 74 0
-73 -422 60 0
74 -373 423 0
74 -372 -423 0
-74 373 423 0
-74 372 -423 0
75 421 -44 0
75 -421 -46 0
-75 -421 46 0
-75 421 44 0
-76 406 77 0
-76 406 -12 0
76 -406 0
76 12 -77 0
77 420 -78 0
77 -420 -81 0
-77 -420 81 0
-77 420 78 0
78 -421 -51 0
78 421 -79 0
-78 421 79 0
-78 -421 51 0
79 -422 -67 0
79 422 -80 0
-79 422 80 0
-79 -422 67 0
80 -374 423 0
80 -373 -423 0
-80 374 423 0
-80 373 -423 0
81 421 -53 0
81 -421 -55 0
-81 -421 55 0
-81 421 53 0
82 -83 -88 0
-82 83 0
-82 88 0
-83 407 84 0
-83 407 -12 0
83 -407 0
83 12 -84 0
84 -420 -5 0
84 420 -85 0
-84 420 85 0
-84 -420 5 0
85 -421 -59 0
85 421 -86 0
-85 421 86 0
-85 -421 59 0
86 -422 -74 0
86 422 -87 0
-86 422 87 0
-86 -422 74 0
87 -375 423 0
87 -374 -423 0
-87 375 423 0
-87 374 -423 0
88 -89 -101 0
-88 89 0
-88 101 0
-89 408 -90 0
-89 408 91 0
-89 408 -96 0
89 -408 0
89 90 -91 96 0
90 -419 -420 0
90 -420 31 0
-90 420 0
-90 419 -31 0
91 16 22 -93 0
91 16 22 -92 0
-91 -16 0
-91 -22 0
-91 92 93 0
-92 419 420 0
92 -419 0
92 -420 0
93 -421 -66 0
93 421 -94 0
-93 421 94 0
-93 -421 66 0
94 -422 -80 0
94 422 -95 0
-94 422 95 0
-94 -422 80 0
95 -376 423 0
95 -375 -423 0
-95 376 423 0
-95 375 -423 0
-96 419 97 98 0
-96 -38 97 98 0
96 -98 0
96 -97 0
96 -419 38 0
-97 413 414 20 0
97 -20 0
97 -414 0
97 -413 0
-98 418 99 0
98 -418 0
98 -99 0
-99 410 18 100 0
99 -100 0
99 -18 0
99 -410 0
-100 408 409 17 0
100 -17 0
100 -409 0
100 -408 0
101 -102 -113 -123 0
-101 123 0
-101 113 0
-101 102 0
-102 409 104 0
-102 409 -420 103 0
102 -409 0
102 420 -104 0
102 -103 -104 0
103 419 -41 0
-103 -419 0
-103 41 0
104 419 105 -108 0
104 -45 105 -108 0
-104 108 0
-104 -105 0
-104 -419 45 0
-105 418 17 106 0
105 -106 0
105 -17 0
105 -418 0
-106 404 107 0
106 -404 0
106 -107 0
-107 413 414 16 0
107 -16 0
107 -414 0
107 -413 0
108 109 19 -110 0
108 109 19 -92 0
-108 -109 0
-108 -19 0
-108 92 110 0
-109 402 403 0
109 -402 0
109 -403 0
110 -421 -73 0
110 421 -111 0
-110 421 111 0
-110 -421 73 0
111 -422 -87 0
111 422 -112 0
-111 422 112 0
-111 -422 87 0
112 -377 423 0
112 -376 -423 0
-112 377 423 0
-112 376 -423 0
-113 410 116 0
-113 410 -114 0
-113 410 -120 0
113 -410 0
113 114 -116 120 0
-114 419 420 0
-114 -50 -115 0
-114 420 -115 0
-114 419 -50 0
114 -420 50 0
114 -419 115 0
115 420 -54 0
-115 -420 0
-115 54 0
116 -92 106 0
116 106 -117 0
-116 -106 0
-116 92 117 0
117 -421 -79 0
117 421 -118 0
-117 421 118 0
-117 -421 79 0
118 -422 -95 0
118 422 -119 0
-118 422 119 0
-118 -422 95 0
119 -378 423 0
119 -377 -423 0
-119 378 423 0
-119 377 -423 0
-120 410 418 121 122 0
120 -410 0
120 -122 0
120 -121 0
120 -418 0
-121 20 24 0
121 -20 0
121 -24 0
-122 392 109 25 100 0
122 -392 0
122 -100 0
122 -25 0
122 -109 0
123 -124 -131 -142 0
-123 142 0
-123 131 0
-123 124 0
-124 411 125 0
-124 411 -120 0
-124 411 -130 0
124 -411 0
124 120 -125 130 0
125 419 -127 0
125 -419 -126 0
125 419 -420 0
-125 -419 126 0
-125 419 420 127 0
126 420 -61 0
-126 -420 0
-126 61 0
127 -421 -86 0
127 421 -128 0
-127 421 128 0
-127 -421 86 0
128 -422 -112 0
128 422 -129 0
-128 422 129 0
-128 -422 112 0
129 -379 423 0
129 -378 -423 0
-129 379 423 0
-129 378 -423 0
-130 -58 106 0
-130 420 106 0
130 -106 0
130 -420 58 0
-131 412 132 0
131 -412 0
131 -132 0
132 419 -133 137 0
132 -419 137 -141 0
-132 -137 0
-132 -419 141 0
-132 419 133 0
133 -420 -65 0
133 420 -134 0
-133 420 134 0
-133 -420 65 0
134 -421 -94 0
134 421 -135 0
-134 421 135 0
-134 -421 94 0
135 -422 -119 0
135 422 -136 0
-135 422 136 0
-135 -422 119 0
136 -380 423 0
136 -379 -423 0
-136 380 423 0
-136 379 -423 0
-137 404 20 23 138 0
137 -404 0
137 -138 0
137 -23 0
137 -20 0
-138 418 21 139 140 0
138 -418 0
138 -140 0
138 -139 0
138 -21 0
-139 392 402 403 0
139 -392 0
139 -403 0
139 -402 0
-140 17 107 0
140 -17 0
140 -107 0
141 420 -68 0
-141 -420 0
-141 68 0
142 -143 -150 0
-142 143 0
-142 150 0
-143 413 144 0
143 -413 0
143 -144 0
144 -419 137 -149 0
144 419 137 -145 0
-144 -137 0
-144 -419 149 0
-144 419 145 0
145 -420 -72 0
145 420 -146 0
-145 420 146 0
-145 -420 72 0
146 -421 -111 0
146 421 -147 0
-146 421 147 0
-146 -421 111 0
147 -422 -129 0
147 422 -148 0
-147 422 148 0
-147 -422 129 0
148 -381 423 0
148 -380 -423 0
-148 381 423 0
-148 380 -423 0
149 420 -75 0
-149 -420 0
-149 75 0
150 -151 -158 -164 0
-150 164 0
-150 158 0
-150 151 0
-151 414 152 0
151 -414 0
151 -152 0
152 -419 137 -157 0
152 419 137 -153 0
-152 -137 0
-152 -419 157 0
-152 419 153 0
153 -420 -78 0
153 420 -154 0
-153 420 154 0
-153 -420 78 0
154 -421 -118 0
154 421 -155 0
-154 421 155 0
-154 -421 118 0
155 -422 -136 0
155 422 -156 0
-155 422 156 0
-155 -422 136 0
156 -382 423 0
156 -381 -423 0
-156 382 423 0
-156 381 -423 0
157 420 -81 0
-157 -420 0
-157 81 0
-158 415 159 0
158 -415 0
158 -159 0
159 419 137 -160 0
159 -419 -4 137 0
-159 -137 0
-159 -419 4 0
-159 419 160 0
160 -420 -85 0
160 420 -161 0
-160 420 161 0
-160 -420 85 0
161 -421 -128 0
161 421 -162 0
-161 421 162 0
-161 -421 128 0
162 -422 -148 0
162 422 -163 0
-162 422 163 0
-162 -422 148 0
163 -383 423 0
163 -382 -423 0
-163 383 423 0
-163 382 -423 0
164 -165 -171 0
-164 165 0
-164 171 0
-165 416 -137 0
-165 416 166 0
165 -416 0
165 137 -166 0
-166 -419 30 0
-166 419 167 0
166 -419 -30 0
166 419 -167 0
-167 -420 93 0
-167 420 168 0
167 -420 -93 0
167 420 -168 0
-168 421 169 0
-168 -421 135 0
168 -421 -135 0
168 421 -169 0
169 -422 -156 0
169 422 -170 0
-169 422 170 0
-169 -422 156 0
170 -384 423 0
170 -383 -423 0
-170 384 423 0
-170 383 -423 0
171 -172 -178 0
-171 172 0
-171 178 0
-172 417 -137 0
-172 417 173 0
172 -417 0
172 137 -173 0
-173 -419 40 0
-173 419 174 0
173 -419 -40 0
173 419 -174 0
-174 -420 110 0
-174 420 175 0
174 -420 -110 0
174 420 -175 0
-175 421 176 0
-175 -421 147 0
175 -421 -147 0
175 421 -176 0
176 -422 -163 0
176 422 -177 0
-176 422 177 0
-176 -422 163 0
177 -385 423 0
177 -384 -423 0
-177 385 423 0
-177 384 -423 0
178 -179 -185 0
-178 179 0
-178 185 0
-179 418 180 0
179 -418 0
179 -180 0
180 419 137 -181 0
180 -419 -49 137 0
-180 -137 0
-180 -419 49 0
-180 419 181 0
181 -420 -117 0
181 420 -182 0
-181 420 182 0
-181 -420 117 0
182 -421 -155 0
182 421 -183 0
-182 421 183 0
-182 -421 155 0
183 -422 -170 0
183 422 -184 0
-183 422 184 0
-183 -422 170 0
184 -386 423 0
184 -385 -423 0
-184 386 423 0
-184 385 -423 0
185 -186 -192 0
-185 186 0
-185 192 0
-186 419 187 0
186 -419 0
186 -187 0
187 419 137 -188 0
187 -419 -57 137 0
-187 -137 0
-187 419 188 0
-187 -419 57 0
-188 -420 127 0
-188 420 189 0
188 -420 -127 0
188 420 -189 0
-189 421 190 0
-189 -421 162 0
189 -421 -162 0
189 421 -190 0
190 -422 -177 0
190 422 -191 0
-190 422 191 0
-190 -422 177 0
191 -387 423 0
191 -386 -423 0
-191 387 423 0
-191 386 -423 0
-192 193 194 0
192 -193 0
192 -194 0
193 -419 -57 137 0
-193 419 0
-193 57 0
-193 -137 0
194 -420 -195 0
194 -195 -200 0
194 -420 -200 0
-194 420 200 0
-194 195 200 0
-194 420 195 0
195 419 137 -196 0
195 -419 -64 137 0
-195 -137 0
-195 419 196 0
-195 -419 64 0
-196 -420 134 0
-196 420 197 0
196 -420 -134 0
196 420 -197 0
-197 -421 169 0
-197 421 198 0
197 -421 -169 0
197 421 -198 0
-198 422 199 0
-198 -422 184 0
198 -422 -184 0
198 422 -199 0
199 -388 423 0
199 -387 -423 0
-199 388 423 0
-199 387 -423 0
200 -421 -201 0
200 -201 -206 0
200 -421 -206 0
-200 421 206 0
-200 201 206 0
-200 421 201 0
201 419 137 -202 0
201 -419 -71 137 0
-201 -137 0
-201 -419 71 0
-201 419 202 0
202 -420 -146 0
202 420 -203 0
-202 420 203 0
-202 -420 146 0
203 -421 -176 0
203 421 -204 0
-203 421 204 0
-203 -421 176 0
204 -422 -191 0
204 422 -205 0
-204 422 205 0
-204 -422 191 0
205 -389 423 0
205 -388 -423 0
-205 389 423 0
-205 388 -423 0
206 -422 -207 0
206 -207 -212 0
206 -422 -212 0
-206 422 212 0
-206 207 212 0
-206 422 207 0
207 419 137 -208 0
207 -419 -77 137 0
-207 -137 0
-207 419 208 0
-207 -419 77 0
-208 -420 154 0
-208 420 209 0
208 -420 -154 0
208 420 -209 0
-209 -421 183 0
-209 421 210 0
209 -421 -183 0
209 421 -210 0
-210 422 211 0
-210 -422 199 0
210 -422 -199 0
210 422 -211 0
211 -390 423 0
211 -389 -423 0
-211 390 423 0
-211 389 -423 0
212 -423 -213 0
-212 423 0
-212 213 0
213 419 137 -214 0
213 -419 -84 137 0
-213 -137 0
-213 419 214 0
-213 -419 84 0
-214 -420 161 0
-214 420 215 0
214 -420 -161 0
214 420 -215 0
-215 -421 190 0
-215 421 216 0
215 -421 -190 0
215 421 -216 0
-216 422 217 0
-216 -422 205 0
216 -422 -205 0
216 422 -217 0
217 -391 423 0
217 -390 -423 0
-217 391 423 0
-217 390 -423 0
-218 398 219 0
-218 398 -14 0
-218 398 -220 0
218 -398 0
218 14 -219 220 0
219 413 17 121 -157 0
-219 -413 0
-219 157 0
-219 -121 0
-219 -17 0
-220 18 26 221 0
220 -18 0
220 -26 0
220 -221 0
-221 392 21 27 0
221 -27 0
221 -21 0
221 -392 0
222 -56 -223 359 0
222 82 -223 359 0
-222 -359 0
-222 223 0
-222 56 -82 0
223 -56 -224 358 0
223 76 -224 358 0
-223 -358 0
-223 224 0
-223 56 -76 0
224 -56 -225 356 0
224 63 -225 356 0
-224 -356 0
-224 225 0
-224 56 -63 0
225 -226 323 353 355 0
-225 -355 0
-225 226 0
-225 -353 0
-225 -323 0
226 151 164 -227 0
226 -158 -164 -227 0
-226 227 0
-226 158 -164 0
-226 -151 164 0
-227 228 303 320 322 0
227 -303 0
227 -322 0
227 -228 0
227 -320 0
228 -231 -293 0
228 -231 -291 0
228 229 -231 0
-228 231 0
-228 -229 291 293 0
229 200 -230 0
229 -200 230 0
-229 -200 -230 0
-229 200 230 0
230 420 -195 0
230 -420 195 0
-230 -420 -195 0
-230 420 195 0
-231 -232 259 283 0
-231 234 259 283 0
231 -283 0
231 -259 0
231 232 -234 0
232 194 -233 0
232 -194 233 0
-232 -194 -233 0
-232 194 233 0
233 -186 193 0
-233 186 0
-233 -193 0
-234 235 237 245 0
-234 -235 245 248 0
234 -245 0
234 -235 -248 0
234 235 -237 0
235 206 -236 0
235 -206 236 0
-235 -206 -236 0
-235 206 236 0
236 421 -201 0
236 -421 201 0
-236 -421 -201 0
-236 421 201 0
-237 -238 240 243 0
-237 238 242 243 0
237 -243 0
237 -238 -240 0
237 238 -242 0
238 212 -239 0
238 -212 239 0
-238 -212 -239 0
-238 212 239 0
239 422 -207 0
239 -422 207 0
-239 -422 -207 0
-239 422 207 0
-240 385 386 -241 0
-240 386 387 241 0
240 -386 0
240 -385 -241 0
240 -387 241 0
241 423 -213 0
241 -423 213 0
-241 -423 -213 0
-241 423 213 0
-242 389 390 0
242 -389 0
242 -390 0
-243 388 241 244 0
-243 387 388 -241 0
243 -388 0
243 241 -244 0
243 -387 -241 0
-244 389 391 0
-244 389 -238 0
244 -389 0
244 -391 238 0
-245 238 240 246 0
-245 -238 246 247 0
245 -246 0
245 -238 -247 0
245 238 -240 0
-246 383 384 -241 0
-246 384 385 241 0
246 -384 0
246 -383 -241 0
246 -385 241 0
-247 381 382 -241 0
-247 382 383 241 0
247 -382 0
247 -381 -241 0
247 -383 241 0
-248 249 255 257 0
248 -249 0
248 -257 0
248 -255 0
-249 -238 251 254 0
-249 238 250 251 0
249 -251 0
249 238 -250 0
249 -238 -254 0
250 -382 241 0
250 -381 -241 0
-250 382 241 0
-250 381 -241 0
251 238 -252 0
251 -238 -253 0
-251 -238 253 0
-251 238 252 0
252 -383 241 0
252 -382 -241 0
-252 383 241 0
-252 382 -241 0
253 -381 241 0
253 -380 -241 0
-253 381 241 0
-253 380 -241 0
254 -380 241 0
254 -379 -241 0
-254 380 241 0
-254 379 -241 0
255 238 -254 0
255 -238 -256 0
-255 -238 256 0
-255 238 254 0
256 -378 241 0
256 -377 -241 0
-256 378 241 0
-256 377 -241 0
257 238 -253 0
257 -238 -258 0
-257 -238 258 0
-257 238 253 0
258 -379 241 0
258 -378 -241 0
-258 379 241 0
-258 378 -241 0
-259 235 260 278 0
-259 -235 260 280 0
259 -260 0
259 -235 -280 0
259 235 -278 0
-260 238 261 263 0
-260 -238 262 263 0
260 -263 0
260 -238 -262 0
260 238 -261 0
-261 369 370 -241 0
-261 370 371 241 0
261 -370 0
261 -369 -241 0
261 -371 241 0
-262 367 368 -241 0
-262 368 369 241 0
262 -368 0
262 -367 -241 0
262 -369 241 0
263 235 -264 0
263 -235 -271 0
263 235 -267 0
-263 -235 271 0
-263 235 264 267 0
264 238 -265 0
264 -238 -266 0
-264 -238 266 0
-264 238 265 0
265 -369 241 0
265 -368 -241 0
-265 369 241 0
-265 368 -241 0
266 -367 241 0
266 -366 -241 0
-266 367 241 0
-266 366 -241 0
-267 238 270 0
-267 -238 268 269 0
267 -238 -268 0
267 238 -270 0
267 -238 -269 0
268 -373 241 0
268 -372 -241 0
-268 373 241 0
-268 372 -241 0
269 -372 241 0
269 -371 -241 0
-269 372 241 0
-269 371 -241 0
-270 373 374 -241 0
-270 374 375 241 0
270 -374 0
270 -373 -241 0
270 -375 241 0
-271 272 275 0
271 -272 0
271 -275 0
272 238 -266 0
272 -238 -273 0
272 238 -274 0
-272 -238 273 0
-272 238 266 274 0
-273 363 364 -241 0
-273 364 365 241 0
273 -364 0
273 -363 -241 0
273 -365 241 0
274 -366 241 0
274 -365 -241 0
-274 366 241 0
-274 365 -241 0
275 238 -276 0
275 -238 -277 0
-275 -238 277 0
-275 238 276 0
276 -365 241 0
276 -364 -241 0
-276 365 241 0
-276 364 -241 0
277 -363 241 0
277 -362 -241 0
-277 363 241 0
-277 362 -241 0
278 238 -279 0
278 -238 -274 0
-278 -238 274 0
-278 238 279 0
279 -368 241 0
279 -367 -241 0
-279 368 241 0
-279 367 -241 0
280 238 -281 0
280 -238 -282 0
-280 -238 282 0
-280 238 281 0
281 -364 241 0
281 -363 -241 0
-281 364 241 0
-281 363 -241 0
282 -362 241 0
282 -361 -241 0
-282 362 241 0
-282 361 -241 0
-283 229 284 285 288 0
283 -288 0
283 -285 0
283 -229 0
283 -284 0
284 -235 -264 0
-284 235 0
-284 264 0
285 235 -286 0
-285 -235 0
-285 286 0
286 -238 -287 0
286 238 -268 0
-286 238 268 0
-286 -238 287 0
287 -371 241 0
287 -370 -241 0
-287 371 241 0
-287 370 -241 0
288 -235 -278 0
288 235 -289 0
-288 235 289 0
-288 -235 278 0
289 -238 -290 0
289 238 -269 0
-289 238 269 0
-289 -238 290 0
290 -370 241 0
290 -369 -241 0
-290 370 241 0
-290 369 -241 0
291 235 -280 0
291 -235 -292 0
-291 -235 292 0
-291 235 280 0
292 -360 238 241 0
-292 360 0
-292 -241 0
-292 -238 0
293 232 -259 0
293 232 -298 0
293 232 -294 0
-293 -232 0
-293 259 294 298 0
294 235 -255 0
294 -235 -295 0
-294 -235 295 0
-294 235 255 0
295 -238 -296 0
295 238 -297 0
-295 238 297 0
-295 -238 296 0
296 -374 241 0
296 -373 -241 0
-296 374 241 0
-296 373 -241 0
297 -376 241 0
297 -375 -241 0
-297 376 241 0
-297 375 -241 0
-298 299 300 0
-298 235 299 0
298 -299 0
298 -235 -300 0
299 235 -257 0
-299 -235 0
-299 257 0
300 -238 -301 0
300 238 -302 0
-300 238 302 0
-300 -238 301 0
301 -375 241 0
301 -374 -241 0
-301 375 241 0
-301 374 -241 0
302 -377 241 0
302 -376 -241 0
-302 377 241 0
-302 376 -241 0
-303 -232 311 0
-303 304 307 311 0
303 -311 0
303 232 -307 0
303 232 -304 0
-304 -229 305 0
-304 299 300 305 0
304 -305 0
304 229 -299 0
304 229 -300 0
-305 238 256 306 0
-305 -238 297 306 0
305 -306 0
305 238 -256 0
305 -238 -297 0
306 238 -258 0
306 -238 -302 0
-306 -238 302 0
-306 238 258 0
-307 235 309 310 0
-307 -235 308 309 0
307 -309 0
307 -235 -308 0
307 235 -310 0
-308 267 286 289 0
308 -267 0
308 -289 0
308 -286 0
309 -229 -284 0
309 -229 -286 0
-309 229 0
-309 284 286 0
-310 249 295 300 0
310 -249 0
310 -300 0
310 -295 0
311 -312 -313 0
-311 312 0
-311 313 0
-312 232 229 0
312 -232 0
312 -229 0
-313 235 275 316 0
-313 -235 314 316 0
313 -316 0
313 235 -275 0
313 -235 -314 0
314 238 -315 0
-314 -238 0
-314 315 0
315 -361 241 0
315 -360 -241 0
-315 361 241 0
-315 360 -241 0
-316 -235 317 0
-316 272 317 319 0
316 -317 0
316 235 -272 0
316 235 -319 0
317 238 -277 0
317 -238 -318 0
317 238 -282 0
-317 -238 318 0
-317 238 277 282 0
-318 360 361 0
-318 360 -241 0
318 -360 0
318 -361 241 0
-319 -238 0
-319 360 -241 0
-319 360 361 0
319 -360 238 0
319 -361 238 241 0
320 232 -321 0
320 229 -291 -321 0
-320 321 0
-320 -232 291 0
-320 -232 -229 0
321 -288 -312 0
321 229 -294 0
321 -288 -294 0
321 229 -312 0
-321 294 312 0
-321 -229 288 0
322 -291 312 0
322 312 -313 0
-322 -312 0
-322 291 313 0
-323 150 324 0
-323 -143 324 0
323 -324 0
323 143 -150 0
-324 325 346 350 0
-324 -331 346 350 0
324 -350 0
324 -346 0
324 -325 331 0
-325 392 327 0
-325 392 -326 0
-325 392 -328 0
325 -392 0
325 326 -327 328 0
-326 20 26 0
326 -20 0
326 -26 0
327 -38 98 0
-327 38 0
-327 -98 0
-328 329 92 107 330 0
328 -330 0
328 -329 0
328 -107 0
328 -92 0
-329 393 394 0
329 -393 0
329 -394 0
-330 395 27 0
330 -395 0
330 -27 0
331 -218 -332 -334 -335 0
-331 335 0
-331 334 0
-331 218 0
-331 332 0
-332 396 -326 0
-332 396 -221 0
-332 396 333 0
332 -396 0
332 221 326 -333 0
333 13 24 -141 0
-333 -13 0
-333 -24 0
-333 141 0
-334 397 149 0
-334 397 -12 0
334 -397 0
334 12 -149 0
335 -336 -342 -345 0
-335 336 0
-335 345 0
-335 342 0
-336 393 -339 0
-336 393 -337 0
-336 393 341 0
336 -393 0
336 337 339 -341 0
-337 394 18 338 326 0
337 -394 0
337 -326 0
337 -338 0
337 -18 0
-338 410 418 0
338 -410 0
338 -418 0
-339 92 340 0
339 -92 0
339 -340 0
-340 392 330 0
340 -392 0
340 -330 0
341 408 409 -45 140 0
-341 -408 0
-341 -140 0
-341 45 0
-341 -409 0
-342 394 -343 0
-342 394 -99 0
-342 394 344 0
342 -394 0
342 99 343 -344 0
-343 393 26 97 340 0
343 -393 0
343 -340 0
343 -97 0
343 -26 0
344 15 -115 0
-344 -15 0
-344 115 0
-345 395 126 0
-345 395 -12 0
345 -395 0
345 12 -126 0
-346 -3 347 348 0
-346 29 347 348 0
346 -348 0
346 -347 0
346 3 -29 0
347 325 -345 0
347 325 -336 0
347 325 -342 0
-347 -325 0
-347 336 342 345 0
-348 -89 349 0
-348 83 102 349 0
348 -349 0
348 89 -102 0
348 -83 89 0
-349 39 -56 0
-349 -3 48 0
-349 39 48 0
-349 -3 -56 0
349 -48 56 0
349 3 -39 0
-350 113 351 352 0
-350 -102 351 352 0
350 -351 0
350 -352 0
350 102 -113 0
-351 -3 -63 0
-351 70 218 0
-351 -63 218 0
-351 -3 70 0
351 63 -70 0
351 3 -218 0
352 -218 325 0
352 325 -332 0
352 325 -334 0
-352 -325 0
-352 218 332 334 0
-353 158 354 0
-353 -151 354 0
353 -354 0
353 151 -158 0
-354 -165 -172 -179 -185 0
-354 165 172 179 185 0
354 -172 185 0
354 165 -185 0
354 172 -179 0
354 -165 179 0
-355 124 143 0
-355 -131 -143 -150 0
-355 124 -150 0
355 -143 150 0
355 -124 143 0
355 -124 131 0
-356 -124 357 0
-356 131 142 357 0
356 -357 0
356 124 -131 0
356 124 -142 0
357 -89 101 0
-357 89 0
-357 -101 0
-358 123 88 0
-358 -83 -102 0
-358 -102 88 0
-358 -83 123 0
358 102 -123 0
358 83 -88 0
-359 56 0
-359 -3 -48 -62 0
359 48 -56 0
359 -56 62 0
359 3 -56 0
-424 0
2 0

